25 33 98 1 15 8 17 90 66 71 72 2 97 86 76 64 65 91 39 4 37 20 22 79 12 94 42 59 60 0 36 6 51 24 46 30 48 68 82 38 19 32 87 77 43 99 3 5 96 55 10 61 18 34 14 70 29 62 50 73 67 84 44 92 16 35 11 47 45 69 56 88 80 31 95 63 26 49 41 9 53 83 85 81 58 78 75 27 23 40 54 74 93 52 21 13 28 89 57 7